
Starting CP-SAT solver v9.15.6755
Parameters: max_time_in_seconds: 3600 log_search_progress: true num_workers: 4

Initial satisfaction model '': (model_fingerprint: 0x70d1377b7f38620b)
#Variables: 12'852 (12'314 primary variables)
  - 12'460 Booleans in [0,1]
  - 392 in [0,2]
#kBoolAnd: 10'974 (#enforced: 10'974) (#literals: 32'842)
#kBoolOr: 10'894 (#enforced: 10'894) (#literals: 21'788)
#kLinear2: 2'618 (#enforced: 2'186) (#complex_domain: 742)
#kLinear3: 392
#kLinearN: 147 (#terms: 11'368)

Starting presolve at 0.01s
  3.58e-03s  0.00e+00d  [DetectDominanceRelations] 
  3.28e-02s  0.00e+00d  [PresolveToFixPoint] #num_loops=2 #num_dual_strengthening=1 
  2.21e-04s  0.00e+00d  [ExtractEncodingFromLinear] #potential_subsets=392 
  9.07e-04s  0.00e+00d  [DetectDuplicateColumns] 
  6.02e-04s  0.00e+00d  [DetectDuplicateConstraints] 
[Symmetry] Graph for symmetry has 69'757 nodes and 151'194 arcs.
[Symmetry] Symmetry computation done. time: 0.0222009 dtime: 0.063521
[SAT presolve] num removable Booleans: 782 / 13'636
[SAT presolve] num trivial clauses: 0
[SAT presolve] [0s] clauses:39'832 literals:97'236 vars:13'636 one_side_vars:0 simple_definition:10'232 singleton_clauses:0
[SAT presolve] [0.00203464s] clauses:39'832 literals:97'236 vars:13'636 one_side_vars:0 simple_definition:10'232 singleton_clauses:0
[SAT presolve] [0.00276481s] clauses:39'712 literals:96'956 vars:13'596 one_side_vars:0 simple_definition:10'232 singleton_clauses:0
  7.85e-04s  0.00e+00d  [DetectDuplicateConstraintsWithDifferentEnforcements] 
  1.80e-01s  2.00e-01d  [Probe] #probed=21'011 #fixed_bools=3'235 #new_bounds=79 #equiv=1'079 #new_binary_clauses=23'074 
  1.74e-02s  3.40e-02d  [MaxClique] Merged 22'271 constraints with 46'908 literals into 15'302 constraints with 39'927 literals
  4.46e-03s  0.00e+00d  [DetectDominanceRelations] 
  1.85e-02s  0.00e+00d  [PresolveToFixPoint] #num_loops=2 #num_dual_strengthening=1 
  2.67e-03s  0.00e+00d  [ProcessAtMostOneAndLinear] 
  7.99e-04s  0.00e+00d  [DetectDuplicateConstraints] #duplicates=71 
  6.03e-04s  0.00e+00d  [DetectDuplicateConstraintsWithDifferentEnforcements] 
  4.74e-04s  2.97e-05d  [DetectDominatedLinearConstraints] #relevant_constraints=463 #num_inclusions=2 
  3.14e-04s  0.00e+00d  [DetectDifferentVariables] 
  4.18e-03s  3.41e-04d  [ProcessSetPPC] #relevant_constraints=22'020 #num_inclusions=1'769 
  3.85e-03s  7.98e-04d  [TransformClausesToExactlyOne] #num_amos=9'172 #num_clauses=13'063 #num_transformed=18 #num_checked=13'063 
  3.81e-03s  0.00e+00d  [DetectEncodedComplexDomains] 
  3.44e-04s  0.00e+00d  [FindAlmostIdenticalLinearConstraints] 
  4.06e-03s  8.95e-03d  [FindBigAtMostOneAndLinearOverlap] 
  1.21e-03s  4.09e-03d  [FindBigVerticalLinearOverlap] 
  6.90e-04s  1.93e-03d  [FindBigHorizontalLinearOverlap] #linears=144 
  1.78e-03s  1.96e-04d  [MergeClauses] #num_collisions=22 #num_merges=22 #num_saved_literals=44 
  4.53e-03s  0.00e+00d  [DetectDominanceRelations] 
  1.53e-02s  0.00e+00d  [PresolveToFixPoint] #num_loops=1 #num_dual_strengthening=1 
  4.50e-03s  0.00e+00d  [DetectDominanceRelations] 
  1.52e-02s  0.00e+00d  [PresolveToFixPoint] #num_loops=1 #num_dual_strengthening=1 
  8.72e-04s  0.00e+00d  [DetectDuplicateColumns] 
  6.20e-04s  0.00e+00d  [DetectDuplicateConstraints] #duplicates=8 
[Symmetry] Graph for symmetry has 47'702 nodes and 91'526 arcs.
[Symmetry] Symmetry computation done. time: 0.00758118 dtime: 0.0170417
[SAT presolve] num removable Booleans: 614 / 9'282
[SAT presolve] num trivial clauses: 0
[SAT presolve] [0s] clauses:15'237 literals:43'519 vars:9'282 one_side_vars:6702 simple_definition:485 singleton_clauses:0
[SAT presolve] [0.000641589s] clauses:15'237 literals:43'514 vars:9'282 one_side_vars:6702 simple_definition:485 singleton_clauses:0
[SAT presolve] [0.00115701s] clauses:15'204 literals:43'455 vars:9'272 one_side_vars:6702 simple_definition:485 singleton_clauses:0
  1.19e-03s  0.00e+00d  [DetectDuplicateConstraintsWithDifferentEnforcements] #without_enforcements=3 
  1.23e-01s  1.40e-01d  [Probe] #probed=20'841 #fixed_bools=9 #equiv=2 #new_binary_clauses=8'298 
  1.24e-02s  3.17e-02d  [MaxClique] Merged 9'113 constraints with 26'705 literals into 8'953 constraints with 26'485 literals
  4.68e-03s  0.00e+00d  [DetectDominanceRelations] 
  1.62e-02s  0.00e+00d  [PresolveToFixPoint] #num_loops=1 #num_dual_strengthening=1 
  2.81e-03s  0.00e+00d  [ProcessAtMostOneAndLinear] 
  6.79e-04s  0.00e+00d  [DetectDuplicateConstraints] #duplicates=1 
  6.41e-04s  0.00e+00d  [DetectDuplicateConstraintsWithDifferentEnforcements] 
  5.35e-04s  2.97e-05d  [DetectDominatedLinearConstraints] #relevant_constraints=463 #num_inclusions=2 
  4.12e-04s  0.00e+00d  [DetectDifferentVariables] 
  4.35e-03s  3.45e-04d  [ProcessSetPPC] #relevant_constraints=22'078 #num_inclusions=1'755 
  4.04e-03s  7.86e-04d  [TransformClausesToExactlyOne] #num_amos=8'930 #num_clauses=13'008 #num_checked=13'008 
  4.00e-03s  0.00e+00d  [DetectEncodedComplexDomains] 
  4.28e-04s  0.00e+00d  [FindAlmostIdenticalLinearConstraints] 
  4.31e-03s  8.92e-03d  [FindBigAtMostOneAndLinearOverlap] 
  1.29e-03s  4.09e-03d  [FindBigVerticalLinearOverlap] 
  7.65e-04s  1.93e-03d  [FindBigHorizontalLinearOverlap] #linears=144 
  1.90e-03s  1.95e-04d  [MergeClauses] #num_collisions=21 #num_merges=21 #num_saved_literals=42 
  4.69e-03s  0.00e+00d  [DetectDominanceRelations] 
  1.60e-02s  0.00e+00d  [PresolveToFixPoint] #num_loops=1 #num_dual_strengthening=1 
  4.76e-03s  0.00e+00d  [DetectDominanceRelations] 
  1.61e-02s  0.00e+00d  [PresolveToFixPoint] #num_loops=1 #num_dual_strengthening=1 
  8.98e-04s  0.00e+00d  [DetectDuplicateColumns] 
  6.85e-04s  0.00e+00d  [DetectDuplicateConstraints] #duplicates=1 
[Symmetry] Graph for symmetry has 47'670 nodes and 91'001 arcs.
[Symmetry] Symmetry computation done. time: 0.00763214 dtime: 0.0171709
[SAT presolve] num removable Booleans: 587 / 9'261
[SAT presolve] num trivial clauses: 0
[SAT presolve] [0s] clauses:14'924 literals:42'857 vars:9'261 one_side_vars:6701 simple_definition:488 singleton_clauses:0
[SAT presolve] [0.000636009s] clauses:14'924 literals:42'857 vars:9'261 one_side_vars:6701 simple_definition:488 singleton_clauses:0
[SAT presolve] [0.00113125s] clauses:14'897 literals:42'781 vars:9'254 one_side_vars:6701 simple_definition:489 singleton_clauses:0
  1.62e-03s  0.00e+00d  [DetectDuplicateConstraintsWithDifferentEnforcements] 
  1.33e-01s  1.39e-01d  [Probe] #probed=20'838 #new_binary_clauses=8'107 
  1.29e-02s  3.14e-02d  [MaxClique] Merged 8'925 constraints with 26'410 literals into 8'910 constraints with 26'389 literals
  5.14e-03s  0.00e+00d  [DetectDominanceRelations] 
  1.76e-02s  0.00e+00d  [PresolveToFixPoint] #num_loops=1 #num_dual_strengthening=1 
  3.14e-03s  0.00e+00d  [ProcessAtMostOneAndLinear] 
  8.46e-04s  0.00e+00d  [DetectDuplicateConstraints] 
  7.62e-04s  0.00e+00d  [DetectDuplicateConstraintsWithDifferentEnforcements] 
  6.22e-04s  2.97e-05d  [DetectDominatedLinearConstraints] #relevant_constraints=463 #num_inclusions=2 
  4.91e-04s  0.00e+00d  [DetectDifferentVariables] 
  4.45e-03s  3.44e-04d  [ProcessSetPPC] #relevant_constraints=22'020 #num_inclusions=1'734 
  4.18e-03s  7.84e-04d  [TransformClausesToExactlyOne] #num_amos=8'922 #num_clauses=12'973 #num_checked=12'973 
  4.32e-03s  0.00e+00d  [DetectEncodedComplexDomains] 
  5.20e-04s  0.00e+00d  [FindAlmostIdenticalLinearConstraints] 
  4.36e-03s  8.95e-03d  [FindBigAtMostOneAndLinearOverlap] 
  1.32e-03s  4.09e-03d  [FindBigVerticalLinearOverlap] 
  8.43e-04s  1.93e-03d  [FindBigHorizontalLinearOverlap] #linears=144 
  2.03e-03s  1.95e-04d  [MergeClauses] #num_collisions=15 #num_merges=15 #num_saved_literals=30 
  5.10e-03s  0.00e+00d  [DetectDominanceRelations] 
  1.69e-02s  0.00e+00d  [PresolveToFixPoint] #num_loops=1 #num_dual_strengthening=1 
  3.62e-04s  0.00e+00d  [MergeNoOverlap] 
  3.92e-04s  0.00e+00d  [MergeNoOverlap2D] 

Presolve summary:
  - 1112 affine relations were detected.
  - rule 'TODO dual: only one blocking constraint?' was applied 339 times.
  - rule 'TODO linear2: contains a boolean' was applied 282 times.
  - rule 'affine: new relation' was applied 1'112 times.
  - rule 'at_most_one: empty or all false' was applied 110 times.
  - rule 'at_most_one: removed literals' was applied 3'074 times.
  - rule 'at_most_one: satisfied' was applied 3'134 times.
  - rule 'at_most_one: size one' was applied 2'878 times.
  - rule 'at_most_one: transformed into max clique' was applied 3 times.
  - rule 'bool_and: x => x' was applied 92 times.
  - rule 'bool_or: always true' was applied 4'113 times.
  - rule 'bool_or: implications' was applied 790 times.
  - rule 'bool_or: removed enforcement literal' was applied 6'681 times.
  - rule 'clauses: transformed into exactly one' was applied 18 times.
  - rule 'deductions: 3718 stored' was applied 1 time.
  - rule 'duplicate: removed constraint' was applied 81 times.
  - rule 'duplicate: removed enforced constraint' was applied 3 times.
  - rule 'enforcement: false literal' was applied 242 times.
  - rule 'enforcement: true literal' was applied 226 times.
  - rule 'linear1: transformed to implication' was applied 10 times.
  - rule 'linear2: convert ax + by != cte to clauses' was applied 1'159 times.
  - rule 'linear2: convert implied ax + by == cte to clauses' was applied 742 times.
  - rule 'linear: always true' was applied 39 times.
  - rule 'linear: empty' was applied 275 times.
  - rule 'linear: enforcement literal in expression' was applied 16 times.
  - rule 'linear: extracted at most one (max)' was applied 91 times.
  - rule 'linear: fixed or dup variables' was applied 474 times.
  - rule 'linear: remapped using affine relations' was applied 147 times.
  - rule 'new_bool: integer encoding' was applied 1'176 times.
  - rule 'presolve: 3296 unused variables removed.' was applied 1 time.
  - rule 'presolve: iteration' was applied 3 times.
  - rule 'probing: bool_or reduced to implication' was applied 2'720 times.
  - rule 'probing: simplified clauses' was applied 1 time.
  - rule 'setppc: bool_or in at_most_one' was applied 18 times.
  - rule 'setppc: removed dominated constraints' was applied 4 times.
  - rule 'variables: add encoding constraint' was applied 1'176 times.
  - rule 'variables: canonicalize domain' was applied 4 times.

Presolved satisfaction model '': (model_fingerprint: 0x9526bd37a9acd95b)
#Variables: 9'567 (9'130 primary variables)
  - 9'254 Booleans in [0,1]
  - 313 in [0,2]
#kAtMostOne: 7'022 (#literals: 22'613)
#kBoolAnd: 1'781 (#enforced: 1'781) (#literals: 3'681)
#kBoolAndClauses: 13 (#enforced: 13 #multi: 13) (#literals: 54)
#kBoolOr: 12'945 (#literals: 38'837)
#kExactlyOne: 19 (#literals: 57)
#kLinear1: 1'878 (#enforced: 1'878)
#kLinear2: 578 (#enforced: 572)
#kLinear3: 313
#kLinearN: 144 (#terms: 8'414)
[Symmetry] Graph for symmetry has 43'164 nodes and 90'875 arcs.
[Symmetry] Symmetry computation done. time: 0.0074518 dtime: 0.0169069

Preloading model.
#Model   0.88s var:9567/9567 constraints:24693/24693

Starting search at 0.88s with 4 workers.
3 full problem subsolvers: [default_lp, max_lp, no_lp]
1 first solution subsolver: [fj]
2 interleaved subsolvers: [feasibility_pump, rins/rens]
2 helper subsolvers: [neighborhood_helper, synchronization_agent]

#Model   1.63s var:9523/9567 constraints:24626/24693
#Model   1.93s var:9520/9567 constraints:24623/24693
#Model   2.16s var:9495/9567 constraints:24576/24693
#Model   2.24s var:9490/9567 constraints:24572/24693
#Model  10.61s var:9487/9567 constraints:24572/24693
#Model  14.91s var:9485/9567 constraints:24572/24693
#Model  48.12s var:9469/9567 constraints:24554/24693
#Model 116.12s var:9468/9567 constraints:24552/24693
#Model 567.80s var:9467/9567 constraints:24552/24693
#Model 2845.78s var:9466/9567 constraints:24552/24693
#Model 3210.69s var:9465/9567 constraints:24551/24693
#Model 3347.23s var:9464/9567 constraints:24551/24693

Task timing                   n [     min,      max]      avg      dev     time         n [     min,      max]      avg      dev    dtime
        'default_lp':         1 [   1.00h,    1.00h]    1.00h   0.00ns    1.00h         2 [158.09ms,   34.76m]   17.38m   17.38m   34.77m
  'feasibility_pump':     19777 [117.86us, 377.72ms]   4.16ms   3.02ms    1.37m     19773 [691.08us, 503.91ms] 754.95us   3.88ms   14.93s
                'fj':     19776 [ 45.40ms, 377.02ms]  75.75ms  22.41ms   24.97m     19776 [ 72.93ms, 100.47ms] 100.09ms 216.13us   32.99m
            'max_lp':         1 [   1.00h,    1.00h]    1.00h   0.00ns    1.00h         2 [   1.28s,   49.70m]   24.86m   24.84m   49.72m
             'no_lp':         1 [   1.00h,    1.00h]    1.00h   0.00ns    1.00h         2 [157.16ms,    1.77h]   53.01m   53.01m    1.77h
         'rins/rens':      8610 [  1.42ms, 675.73ms] 229.69ms 116.90ms   32.96m      7130 [ 17.27us, 100.74ms]  61.51ms  45.06ms    7.31m

Search stats     Bools   Conflicts    Branches  Restarts  BacktrackToRoot   Backtrack      BoolPropag  IntegerPropag
  'default_lp':  9'254      21'862   6'399'818       152        2'022'119   3'822'423     691'416'214    647'038'708
      'max_lp':  9'254     167'623  13'350'391       862        4'197'684   8'132'758   1'416'464'199  1'435'934'792
       'no_lp':  9'254  33'504'829  65'612'665    44'570        4'066'948  41'514'617  12'150'278'708  4'532'639'736

SAT formula      Fixed  Equiv  Total  VarLeft  BinaryClauses  PermanentClauses  TemporaryClauses
  'default_lp':    103     92  9'254    9'059         50'728           123'445             5'010
      'max_lp':    103     92  9'254    9'059         50'728           122'783            13'915
       'no_lp':    103     91  9'254    9'060         50'770           185'073            10'389

SAT stats        ClassicMinim     LitRemoved  LitRemovedBinary     LitLearned   LitForgotten   Subsumed
  'default_lp':        13'659        546'024           379'413      1'232'825              0     11'821
      'max_lp':       130'461      2'837'008         2'016'890     16'857'390     11'339'840     24'475
       'no_lp':    29'413'232  1'793'346'607       922'289'909  7'483'722'515  7'203'166'873  1'254'827

Vivification       Clauses  Decisions  LitTrue  Subsumed  LitRemoved  DecisionReused  Conflicts
  'default_lp':  1'017'828  3'580'770        1    24'938     200'170         194'870        763
      'max_lp':  2'124'936  7'134'923        0    25'753     207'941         395'028        933
       'no_lp':  1'570'098  8'247'182        0    43'720     537'708         526'627      3'589

Clause deletion    at_true  l_and_not(l)  to_binary  sub_conflict  sub_extra  sub_decisions  sub_eager  sub_vivify  sub_probing  sub_inpro  blocked  eliminated   forgotten    promoted   conflicts
    'default_lp':       85           107         35        11'777         13            117         44      24'938          656      4'807        0           0           0      12'327      21'862
        'max_lp':       96            20         95        24'090        800            161        385      25'753          890      5'688        0           0     117'448     343'670     167'623
         'no_lp':      122            90         45     1'217'298    193'262          1'757     37'529      43'720          997     12'336        0           0  31'837'302  92'163'373  33'504'829

Lp stats         Component  Iterations  AddedCuts  OPTIMAL  DUAL_F.  DUAL_U.
  'default_lp':          1   5'517'922    214'415   35'955    1'606    1'275
      'max_lp':          1   4'153'916    117'696      285  264'468      133

Lp dimension          Final dimension of first component
  'default_lp':   6578 rows, 8095 columns, 30650 entries
      'max_lp':  12816 rows, 9567 columns, 44880 entries

Lp debug         CutPropag  CutEqPropag  Adjust  Overflow        Bad  BadScaling
  'default_lp':          0           14   1'233         0  4'235'797           0
      'max_lp':          0            1     116         0  1'527'469           0

Lp pool          Constraints  Updates  Simplif  Merged  Shortened  Split  Strengthened        Cuts/Call
  'default_lp':       18'096   12'490        0      32      4'737      0           969  214'415/498'760
      'max_lp':       53'584    1'557        0     316      4'395      0         1'763  117'696/330'511

Lp Cut            max_lp  default_lp
          CG_FF:     612         456
           CG_K:     151         225
          CG_KL:      42          34
           CG_R:     345         403
          CG_RB:     233         503
         CG_RBP:      71         230
         Clique:     449           -
             IB:   4'313     137'522
       MIR_1_FF:   4'673      11'244
        MIR_1_K:   2'105       3'652
       MIR_1_KL:      80       1'621
        MIR_1_R:   1'448       2'578
       MIR_1_RB:     706         964
      MIR_1_RBP:      97         148
      MIR_1_RLT:  38'023           -
       MIR_2_FF:   4'270       5'808
        MIR_2_K:   1'681       2'048
       MIR_2_KL:     209         335
        MIR_2_R:   2'444       4'542
       MIR_2_RB:   1'418       2'613
      MIR_2_RBP:     515         581
       MIR_3_FF:   3'408       2'436
        MIR_3_K:     977       1'156
       MIR_3_KL:     114         148
        MIR_3_R:   3'145       4'205
       MIR_3_RB:     980       2'035
      MIR_3_RBP:     480         613
       MIR_4_FF:   1'893       1'201
        MIR_4_K:     567         455
       MIR_4_KL:      97          51
        MIR_4_R:   2'468       2'952
       MIR_4_RB:     585       1'165
      MIR_4_RBP:     308         467
       MIR_5_FF:     952         726
        MIR_5_K:     290         207
       MIR_5_KL:      34          16
        MIR_5_R:   1'864       2'607
       MIR_5_RB:     452         865
      MIR_5_RBP:     251         419
       MIR_6_FF:     546         446
        MIR_6_K:     190          96
       MIR_6_KL:      22           8
        MIR_6_R:   1'568       2'117
       MIR_6_RB:     359         632
      MIR_6_RBP:     258         395
   ZERO_HALF_FF:   7'148       3'145
    ZERO_HALF_K:     895         254
   ZERO_HALF_KL:     204          72
    ZERO_HALF_R:  22'855       9'828
   ZERO_HALF_RB:     367         128
  ZERO_HALF_RBP:     534          63

LNS stats       Improv/Calls  Closed  Difficulty  TimeLimit
  'rins/rens':     7999/7999     50%    8.77e-01       0.10

LS stats                                    Batches  Restarts/Perturbs    LinMoves    GenMoves  CompoundMoves   Bactracks  WeightUpdates  ScoreComputed
                             'fj_restart':    1'243                237  38'784'618           0              0           0      1'726'602    133'595'920
                    'fj_restart_compound':    1'632                260           0  32'961'402      2'175'832  15'392'313         14'612    446'365'675
                'fj_restart_compound_obj':      711                214           0  12'272'702      1'374'803   5'448'606          2'857    200'376'509
            'fj_restart_compound_perturb':    1'064                241           0  19'119'572      1'889'471   8'614'614          5'066    297'655'944
        'fj_restart_compound_perturb_obj':    1'310                260           0  24'766'569      2'084'925  11'340'306          7'719    362'152'525
                       'fj_restart_decay':      762                229  27'953'111           0              0           0         97'362     40'602'529
              'fj_restart_decay_compound':    1'308                238           0  27'300'492      4'586'310  11'356'600          2'639    369'003'045
          'fj_restart_decay_compound_obj':    1'037                256           0  19'566'074      3'335'537   8'114'760          2'237    293'117'810
      'fj_restart_decay_compound_perturb':    1'304                255           0  26'294'223      4'487'009  10'903'024          2'746    368'489'104
  'fj_restart_decay_compound_perturb_obj':    2'457                270           0  58'260'821      9'531'998  24'363'870          4'508    689'558'644
                   'fj_restart_decay_obj':    1'007                227  37'074'377           0              0           0        127'990     53'666'241
               'fj_restart_decay_perturb':    1'584                240  58'471'676           0              0           0        200'378     84'524'645
           'fj_restart_decay_perturb_obj':    1'021                235  37'567'613           0              0           0        129'930     54'373'754
                         'fj_restart_obj':      821                241  26'093'250           0              0           0        990'407     84'464'741
                     'fj_restart_perturb':    1'080                256  34'085'020           0              0           0      1'433'460    113'395'075
                 'fj_restart_perturb_obj':    1'435                256  44'434'907           0              0           0      2'010'677    153'326'677

Solution repositories    Added  Queried  Synchro
    'alternative_path':      0        0        0
      'best_solutions':      0        0        0
   'fj solution hints':  3'907        0    3'907
        'lp solutions':  3'583    8'610    3'583
                'pump':      0        0

Improving bounds shared    Num  Sym
            'default_lp':    1    0
                'max_lp':   32    0
                 'no_lp':   72    0

Clauses shared    #Exported  #Imported  #BinaryRead  #BinaryTotal
   'default_lp':      7'289    135'932       11'217        11'218
       'max_lp':     14'896    131'308       11'218        11'218
        'no_lp':    148'018     22'134       11'175        11'218

LRAT_status: NA
CpSolverResponse summary:
status: UNKNOWN
objective: NA
best_bound: NA
integers: 9567
booleans: 9254
conflicts: 167623
branches: 13350391
propagations: 1416464199
integer_propagations: 1435934792
restarts: 862
lp_iterations: 4153916
walltime: 3600.08
usertime: 3600.08
deterministic_time: 13864.4
gap_integral: 0

status: UNKNOWN wall: 3600.1 s
UNKNOWN
